clingo version 5.7.1
Reading from stdin
Solving...
SATISFIABLE

Models       : 1668997
Calls        : 1
Time         : 1864.582s (Solving: 1709.66s 1st Model: 1.78s Unsat: 0.00s)
CPU Time     : 1863.360s
